DIMENSION: 6
EDGE_WEIGHT_TYPE: EXPLICIT
EDGE_WEIGHT_FORMAT: FULL_MATRIX
EDGE_WEIGHT_SECTION:
32767 75 33 34 19 4 
75 32767 18 59 43 69 
33 18 32767 76 93 13 
34 59 76 32767 55 52 
19 43 93 55 32767 94 
4 69 13 52 94 32767 
EOF